; benchmark generated from python API
(set-info :status unknown)
(declare-fun x_days () Int)
(assert
 (>= x_days (- 36584)))
(assert
 (<= x_days 36829))
(assert
 (>= x_days 8341))
(assert
 (<= x_days 8705))
(assert
 (let ((?x2984 (+ x_days 730179)))
(let ((?x2440 (mod ?x2984 146097)))
(let ((?x1664 (div ?x2440 36524)))
(let ((?x2669 (ite (<= 4 ?x1664) 3 ?x1664)))
(let ((?x2361 (- ?x2440 (* ?x2669 36524))))
(let ((?x954 (mod ?x2361 1461)))
(let ((?x1082 (div ?x954 365)))
(let ((?x2244 (ite (<= 4 ?x1082) 3 ?x1082)))
(let ((?x829 (+ (+ (* (div ?x2984 146097) 400) (* ?x2669 100)) (* (div ?x2361 1461) 4))))
(let ((?x534 (+ (+ ?x829 ?x2244) 1)))
(let (($x1148 (or (and (= (mod ?x534 4) 0) (and (distinct (mod ?x534 100) 0) true)) (= (mod ?x534 400) 0))))
(let ((?x963 (- ?x954 (* ?x2244 365))))
(let ((?x517 (ite $x1148 31 31)))
(let (($x1971 (>= ?x963 ?x517)))
(let ((?x658 (ite $x1971 (+ (- ?x963 ?x517) 1) (+ (- ?x963 (ite $x1148 0 0)) 1))))
(let ((?x228 (ite $x1148 60 59)))
(let (($x3014 (>= ?x963 ?x228)))
(let ((?x704 (ite $x1148 91 90)))
(let (($x970 (>= ?x963 ?x704)))
(let ((?x2396 (ite $x970 (+ (- ?x963 ?x704) 1) (ite $x3014 (+ (- ?x963 ?x228) 1) ?x658))))
(let ((?x1891 (ite $x1148 121 120)))
(let (($x1815 (>= ?x963 ?x1891)))
(let ((?x301 (ite $x1148 152 151)))
(let (($x931 (>= ?x963 ?x301)))
(let ((?x2914 (ite $x931 (+ (- ?x963 ?x301) 1) (ite $x1815 (+ (- ?x963 ?x1891) 1) ?x2396))))
(let ((?x756 (ite $x1148 182 181)))
(let (($x3207 (>= ?x963 ?x756)))
(let ((?x623 (ite $x1148 213 212)))
(let (($x3331 (>= ?x963 ?x623)))
(let ((?x1140 (ite $x3331 (+ (- ?x963 ?x623) 1) (ite $x3207 (+ (- ?x963 ?x756) 1) ?x2914))))
(let ((?x2592 (ite $x1148 244 243)))
(let (($x777 (>= ?x963 ?x2592)))
(let ((?x2906 (ite $x1148 274 273)))
(let (($x2386 (>= ?x963 ?x2906)))
(let ((?x839 (ite $x2386 (+ (- ?x963 ?x2906) 1) (ite $x777 (+ (- ?x963 ?x2592) 1) ?x1140))))
(let ((?x2718 (ite $x1148 305 304)))
(let (($x664 (>= ?x963 ?x2718)))
(let ((?x468 (ite $x1148 335 334)))
(let (($x413 (>= ?x963 ?x468)))
(let ((?x2353 (ite $x413 (+ (- ?x963 ?x468) 1) (ite $x664 (+ (- ?x963 ?x2718) 1) ?x839))))
(let ((?x673 (ite $x1815 5 (ite $x970 4 (ite $x3014 3 (ite $x1971 2 1))))))
(let ((?x498 (ite $x777 9 (ite $x3331 8 (ite $x3207 7 (ite $x931 6 ?x673))))))
(let ((?x743 (+ (ite $x413 12 (ite $x664 11 (ite $x2386 10 ?x498))) (+ (* 0 12) 2))))
(let ((?x376 (- ?x743 1)))
(let ((?x266 (+ (mod ?x376 12) 1)))
(let ((?x948 (ite (or (= ?x266 4) (= ?x266 6) (= ?x266 9) (= ?x266 11)) 30 31)))
(let (($x289 (and (= (mod (+ ?x534 (+ 0 (div ?x376 12))) 4) 0) (and (distinct (mod (+ ?x534 (+ 0 (div ?x376 12))) 100) 0) true))))
(let (($x1589 (or $x289 (= (mod (+ ?x534 (+ 0 (div ?x376 12))) 400) 0))))
(let ((?x1363 (ite (= ?x266 2) (ite $x1589 29 28) ?x948)))
(let ((?x1828 (ite (> 1 ?x2353) 1 (ite (> ?x2353 ?x1363) ?x1363 ?x2353))))
(let ((?x922 (ite (> 1 ?x1828) 1 (ite (> ?x1828 ?x1363) ?x1363 ?x1828))))
(let ((?x1080 (ite (= 2 ?x266) (ite $x1589 31 31) (ite (= 1 ?x266) (ite $x1589 0 0) 0))))
(let ((?x2021 (ite (= 4 ?x266) (ite $x1589 91 90) (ite (= 3 ?x266) (ite $x1589 60 59) ?x1080))))
(let ((?x2813 (ite (= 6 ?x266) (ite $x1589 152 151) (ite (= 5 ?x266) (ite $x1589 121 120) ?x2021))))
(let ((?x3077 (ite (= 8 ?x266) (ite $x1589 213 212) (ite (= 7 ?x266) (ite $x1589 182 181) ?x2813))))
(let ((?x2190 (ite (= 10 ?x266) (ite $x1589 274 273) (ite (= 9 ?x266) (ite $x1589 244 243) ?x3077))))
(let ((?x2700 (ite (= 12 ?x266) (ite $x1589 335 334) (ite (= 11 ?x266) (ite $x1589 305 304) ?x2190))))
(let ((?x318 (+ (* 365 (- (+ ?x534 (+ 0 (div ?x376 12))) 1)) (div (- (+ ?x534 (+ 0 (div ?x376 12))) 1) 4))))
(let ((?x656 (+ (- ?x318 (div (- (+ ?x534 (+ 0 (div ?x376 12))) 1) 100)) (div (- (+ ?x534 (+ 0 (div ?x376 12))) 1) 400))))
(let ((?x1012 (+ (+ (- (+ (+ ?x656 ?x2700) (- ?x922 1)) 730179) 0) 730179)))
(let ((?x1428 (mod ?x1012 146097)))
(let ((?x1247 (div ?x1428 36524)))
(let ((?x3251 (ite (<= 4 ?x1247) 3 ?x1247)))
(let ((?x1032 (- ?x1428 (* ?x3251 36524))))
(let ((?x2578 (mod ?x1032 1461)))
(let ((?x1556 (div ?x2578 365)))
(let ((?x2800 (ite (<= 4 ?x1556) 3 ?x1556)))
(let ((?x3117 (+ (+ (* (div ?x1012 146097) 400) (* ?x3251 100)) (* (div ?x1032 1461) 4))))
(let ((?x1354 (+ (+ ?x3117 ?x2800) 1)))
(let (($x2329 (or (and (= (mod ?x1354 4) 0) (and (distinct (mod ?x1354 100) 0) true)) (= (mod ?x1354 400) 0))))
(let ((?x1794 (- ?x2578 (* ?x2800 365))))
(let ((?x976 (ite $x2329 31 31)))
(let (($x1638 (>= ?x1794 ?x976)))
(let ((?x2393 (ite $x1638 (+ (- ?x1794 ?x976) 1) (+ (- ?x1794 (ite $x2329 0 0)) 1))))
(let ((?x1917 (ite $x2329 60 59)))
(let (($x2752 (>= ?x1794 ?x1917)))
(let ((?x3416 (ite $x2329 91 90)))
(let (($x3351 (>= ?x1794 ?x3416)))
(let ((?x1888 (ite $x3351 (+ (- ?x1794 ?x3416) 1) (ite $x2752 (+ (- ?x1794 ?x1917) 1) ?x2393))))
(let ((?x3009 (ite $x2329 121 120)))
(let (($x319 (>= ?x1794 ?x3009)))
(let ((?x1174 (ite $x2329 152 151)))
(let (($x2647 (>= ?x1794 ?x1174)))
(let ((?x2657 (ite $x2647 (+ (- ?x1794 ?x1174) 1) (ite $x319 (+ (- ?x1794 ?x3009) 1) ?x1888))))
(let ((?x2928 (ite $x2329 182 181)))
(let (($x1077 (>= ?x1794 ?x2928)))
(let ((?x2890 (ite $x2329 213 212)))
(let (($x2526 (>= ?x1794 ?x2890)))
(let ((?x2699 (ite $x2526 (+ (- ?x1794 ?x2890) 1) (ite $x1077 (+ (- ?x1794 ?x2928) 1) ?x2657))))
(let ((?x2377 (ite $x2329 244 243)))
(let (($x2168 (>= ?x1794 ?x2377)))
(let ((?x1577 (ite $x2329 274 273)))
(let (($x887 (>= ?x1794 ?x1577)))
(let ((?x699 (ite $x887 (+ (- ?x1794 ?x1577) 1) (ite $x2168 (+ (- ?x1794 ?x2377) 1) ?x2699))))
(let ((?x1972 (ite $x2329 305 304)))
(let (($x585 (>= ?x1794 ?x1972)))
(let ((?x707 (ite $x2329 335 334)))
(let (($x394 (>= ?x1794 ?x707)))
(let ((?x458 (ite $x394 (+ (- ?x1794 ?x707) 1) (ite $x585 (+ (- ?x1794 ?x1972) 1) ?x699))))
(let (($x600 (= 0 0)))
(let (($x341 (= (mod (ite $x600 (+ ?x534 (+ 0 (div ?x376 12))) ?x1354) 400) 0)))
(let (($x678 (and (distinct (mod (ite $x600 (+ ?x534 (+ 0 (div ?x376 12))) ?x1354) 100) 0) true)))
(let (($x2879 (= (mod (ite $x600 (+ ?x534 (+ 0 (div ?x376 12))) ?x1354) 4) 0)))
(let (($x910 (or (and $x2879 $x678) $x341)))
(let ((?x926 (ite $x319 5 (ite $x3351 4 (ite $x2752 3 (ite $x1638 2 1))))))
(let ((?x1051 (ite $x2168 9 (ite $x2526 8 (ite $x1077 7 (ite $x2647 6 ?x926))))))
(let ((?x689 (ite $x600 ?x266 (ite $x394 12 (ite $x585 11 (ite $x887 10 ?x1051))))))
(let ((?x2471 (ite (= 2 ?x689) (ite $x910 31 31) (ite (= 1 ?x689) (ite $x910 0 0) 0))))
(let ((?x868 (ite (= 4 ?x689) (ite $x910 91 90) (ite (= 3 ?x689) (ite $x910 60 59) ?x2471))))
(let ((?x646 (ite (= 6 ?x689) (ite $x910 152 151) (ite (= 5 ?x689) (ite $x910 121 120) ?x868))))
(let ((?x657 (ite (= 8 ?x689) (ite $x910 213 212) (ite (= 7 ?x689) (ite $x910 182 181) ?x646))))
(let ((?x778 (ite (= 10 ?x689) (ite $x910 274 273) (ite (= 9 ?x689) (ite $x910 244 243) ?x657))))
(let ((?x891 (ite (= 12 ?x689) (ite $x910 335 334) (ite (= 11 ?x689) (ite $x910 305 304) ?x778))))
(let ((?x1065 (+ ?x534 (+ 0 (div ?x376 12)))))
(let ((?x578 (ite $x600 ?x1065 ?x1354)))
(let ((?x928 (- ?x578 1)))
(let ((?x2883 (+ (- (+ (* 365 ?x928) (div ?x928 4)) (div ?x928 100)) (div ?x928 400))))
(= (- (+ (+ ?x2883 ?x891) (- (ite $x600 ?x922 ?x458) 1)) 730179) (+ x_days 61))))))))))))))))))))))))))))))))))))))))))))))))))))))))))))))))))))))))))))))))))))))))))))))))))))))))))))))))))))))))
(check-sat)
